10 10 3

0 377 270 499 141 493 293 351 129 465 
181 0 440 376 115 163 274 216 187 215 
56 148 0 103 489 458 125 484 133 468 
441 211 192 0 437 87 169 435 385 161 
435 443 447 399 0 123 142 275 189 256 
255 355 393 420 118 0 247 230 313 204 
305 297 494 479 237 204 0 171 381 448 
290 315 333 157 456 275 103 0 111 104 
196 336 450 158 297 305 257 216 0 129 
454 152 392 364 164 395 358 142 339 0 

119.8 0 2
119.8 1 6
119.8 2 3
119.8 3 7
119.8 4 1
119.8 5 8
119.8 6 7
119.8 7 4
119.8 8 9
119.8 9 4

